qbf_easy_train/easy_4665_SAT.qdimacs
p cnf 26 66
a 17 13 0
e 1 2 3 4 5 6 7 8 9 10 11 12 14 15 16 18 19 20 21 22 23 24 25 26 0
3 -1 0
3 -2 0
1 2 -3 0
5 -3 0
5 4 0
3 -4 -5 0
-4 6 -7 0
4 -6 -7 0
-4 -6 7 0
4 6 7 0
-8 9 -10 0
8 -9 -10 0
-8 -9 10 0
8 9 10 0
-11 -2 0
-11 -10 0
2 10 11 0
-13 11 0
-13 -12 0
-11 12 13 0
-8 11 -14 0
8 -11 -14 0
-8 -11 14 0
8 11 14 0
-15 3 0
-15 8 0
-3 -8 15 0
16 14 0
16 15 0
-14 -15 -16 0
-18 -4 0
-18 17 0
4 -17 18 0
-19 -16 0
-19 18 0
16 -18 19 0
-17 8 -20 0
17 -8 -20 0
-17 -8 20 0
17 8 20 0
19 -20 -21 0
-19 20 -21 0
19 20 21 0
-19 -20 21 0
-22 13 0
-22 -21 0
-13 21 22 0
-23 1 0
-23 8 0
-1 -8 23 0
24 22 0
24 23 0
-22 -23 -24 0
25 7 0
25 -24 0
-7 24 -25 0
-26 5 0
-26 25 0
-5 -25 26 0
4 -6 2 -10 0
-7 -16 -25 -10 -19 0
-10 -21 -12 -25 0
21 8 24 0
24 -17 -23 -15 12 0
-15 -11 -1 -5 17 -14 0
26 0
