sat_easy_train/easy_4665_SAT.dimacs
p cnf 109 352
-2 3 -4 0
2 -3 -4 0
-2 -3 4 0
2 3 4 0
-1 -4 -5 0
1 4 -5 0
-1 4 5 0
1 -4 5 0
-6 3 0
-6 -1 0
-3 1 6 0
-7 -5 0
-7 6 0
5 -6 7 0
-9 7 0
-9 -8 0
-7 8 9 0
-10 -1 -11 0
10 1 -11 0
-10 1 11 0
10 -1 11 0
-14 12 0
-14 13 0
-12 -13 14 0
11 14 -15 0
-11 -14 -15 0
11 -14 15 0
-11 14 15 0
-9 -15 -16 0
9 15 -16 0
-9 15 16 0
9 -15 16 0
18 17 0
18 -17 0
-19 -17 0
-19 18 0
17 -18 19 0
12 4 -20 0
-12 -4 -20 0
12 -4 20 0
-12 4 20 0
19 20 -21 0
-19 -20 -21 0
19 -20 21 0
-19 20 21 0
-22 6 0
-22 21 0
-6 -21 22 0
16 -22 -23 0
-16 22 -23 0
16 22 23 0
-16 -22 23 0
-25 -6 0
-25 24 0
6 -24 25 0
-29 8 0
-29 28 0
-8 -28 29 0
-30 -27 -31 0
30 27 -31 0
-30 27 31 0
30 -27 31 0
32 29 0
32 31 0
-29 -31 -32 0
33 -27 0
33 -32 0
27 32 -33 0
-34 -20 0
-34 1 0
20 -1 34 0
35 -33 0
35 34 0
33 -34 -35 0
20 13 -36 0
-20 -13 -36 0
20 -13 36 0
-20 13 36 0
-17 -36 -37 0
17 36 -37 0
-17 36 37 0
17 -36 37 0
39 37 0
39 38 0
-37 -38 -39 0
-40 35 0
-40 39 0
-35 -39 40 0
41 26 0
41 40 0
-26 -40 -41 0
-42 28 0
-42 -28 0
-43 42 0
-43 27 0
-42 -27 43 0
-44 -12 0
-44 28 0
12 -28 44 0
45 -44 0
45 38 0
44 -38 -45 0
-46 -30 0
-46 10 0
30 -10 46 0
47 -46 0
47 13 0
46 -13 -47 0
-48 45 0
-48 -47 0
-45 47 48 0
-49 43 0
-49 48 0
-43 -48 49 0
-31 49 -50 0
31 -49 -50 0
-31 -49 50 0
31 49 50 0
-51 -41 0
-51 -50 0
41 50 51 0
42 -18 -52 0
-42 18 -52 0
42 18 52 0
-42 -18 52 0
-52 -24 -53 0
52 24 -53 0
-52 24 53 0
52 -24 53 0
-3 -54 -55 0
3 54 -55 0
-3 54 55 0
3 -54 55 0
56 53 0
56 -55 0
-53 55 -56 0
57 2 0
57 -44 0
-2 44 -57 0
58 -57 0
58 49 0
57 -49 -58 0
-59 -56 0
-59 58 0
56 -58 59 0
60 -51 0
60 59 0
51 -59 -60 0
25 -60 -61 0
-25 60 -61 0
25 60 61 0
-25 -60 61 0
62 23 0
62 -61 0
-23 61 -62 0
64 -32 0
64 63 0
32 -63 -64 0
65 -64 0
65 -64 0
64 -65 0
66 -65 0
66 28 0
65 -28 -66 0
67 62 0
67 -66 0
-62 66 -67 0
-68 31 0
-68 46 0
-31 -46 68 0
69 30 0
69 68 0
-30 -68 -69 0
70 13 0
70 -10 0
-13 10 -70 0
-71 69 0
-71 70 0
-69 -70 71 0
72 -71 0
72 3 0
71 -3 -72 0
4 -73 0
-4 -73 0
-74 -72 0
-74 -73 0
72 73 74 0
75 67 0
75 -74 0
-67 74 -75 0
76 -24 0
76 -27 0
24 27 -76 0
-77 24 0
-77 4 0
-24 -4 77 0
-35 77 -78 0
35 -77 -78 0
-35 -77 78 0
35 77 78 0
53 -78 -79 0
-53 78 -79 0
53 78 79 0
-53 -78 79 0
-80 -21 0
-80 -1 0
21 1 80 0
-81 31 0
-81 -6 0
-31 6 81 0
81 38 -82 0
-81 -38 -82 0
81 -38 82 0
-81 38 82 0
83 3 0
83 -53 0
-3 53 -83 0
84 82 0
84 83 0
-82 -83 -84 0
30 13 -85 0
-30 -13 -85 0
30 -13 85 0
-30 13 85 0
7 -85 -86 0
-7 85 -86 0
7 85 86 0
-7 -85 86 0
84 -86 -87 0
-84 86 -87 0
84 86 87 0
-84 -86 87 0
88 -46 0
88 -54 0
46 54 -88 0
-87 -88 -89 0
87 88 -89 0
-87 88 89 0
87 -88 89 0
90 -80 0
90 89 0
80 -89 -90 0
-91 -79 0
-91 90 0
79 -90 91 0
-92 -54 0
-92 -10 0
54 10 92 0
93 12 0
93 29 0
-12 -29 -93 0
-6 93 -94 0
6 -93 -94 0
-6 -93 94 0
6 93 94 0
95 92 0
95 -94 0
-92 94 -95 0
-96 91 0
-96 -95 0
-91 95 96 0
-93 -38 -97 0
93 38 -97 0
-93 38 97 0
93 -38 97 0
98 -14 0
98 97 0
14 -97 -98 0
-99 29 0
-99 31 0
-29 -31 99 0
-100 -98 0
-100 99 0
98 -99 100 0
96 -100 -101 0
-96 100 -101 0
96 100 101 0
-96 -100 101 0
-102 76 0
-102 -101 0
-76 101 102 0
103 -32 0
103 70 0
32 -70 -103 0
104 5 0
104 103 0
-5 -103 -104 0
-105 -29 0
-105 104 0
29 -104 105 0
102 105 -106 0
-102 -105 -106 0
102 -105 106 0
-102 105 106 0
107 75 0
107 -106 0
-75 106 -107 0
31 -4 -108 0
-31 4 -108 0
31 4 108 0
-31 -4 108 0
-107 108 -109 0
107 -108 -109 0
-107 -108 109 0
107 108 109 0
-78 -106 -55 0
44 -63 -20 18 -27 0
55 62 30 5 12 0
-59 36 17 -56 88 0
55 81 77 0
-31 -13 0
-87 -91 0
-69 23 -7 -24 0
-21 73 -64 -42 -14 0
-99 -70 92 0
-97 -29 -8 0
19 98 37 -46 -3 0
97 -98 78 0
104 -93 75 0
41 31 -1 0
109 61 -107 54 0
101 62 92 69 0
20 43 2 81 0
-102 20 0
30 86 -33 -8 -21 0
64 95 0
-43 105 14 75 0
16 -46 0
-49 -19 11 91 67 0
-33 9 -95 41 -67 -102 0
-23 76 0
31 -80 43 6 0
-98 83 0
68 105 0
-94 32 0
64 -108 81 -80 -18 0
-46 82 0
-4 -73 0
95 -48 71 -27 -63 -69 0
-75 -47 13 42 0
29 -70 -27 50 100 0
15 109 -47 0
-10 15 -91 98 -7 -46 0
44 -37 32 0
79 40 -58 -47 -7 -88 0
92 -71 8 100 19 -78 0
-11 100 101 0
87 77 0
-29 87 0
92 -81 -103 -63 0
43 -103 1 -65 5 -60 0
109 0
